(set-info :smt-lib-version 2.6)
(set-logic QF_SLIA)
(set-info :source |
Generated by: Dmitry Blotsky1, Federico Mora, Murphy Berzish, Yunhui Zheng, Ifaz Kabir, Vijay Ganesh, Zhengyang Lu
Generated on: 2018-01-24
Generator: StringFuzz
Application: Evaluate string solvers
Target solver: Z3str3, CVC4, Z3str2, Norn
Publications: Blotsky, D., Mora, F., Berzish, M., Zheng, Y., Kabir, I., & Ganesh, V. (2018). Stringfuzz: A fuzzer for string solvers. In CAV 2018.
|)
(set-info :license "https://creativecommons.org/licenses/by/4.0/")
(set-info :category "random")
(set-info :status unknown)

(declare-const x String)
(declare-const y String)
(assert (str.in_re x (re.* (str.to_re "'\x0c'zqab' 'Qz"))))
(assert (str.in_re x (re.+ (str.to_re "5Y!>^' 'b"))))
(assert (str.in_re x (re.+ (str.to_re "aaIvB'\n'c@ApVOqAcnn,&""k}w7!G5De$CAshB9>6_'RWr&''\n'C<a'\n'L@L|o\\tUG>\\yRTNN,B`n&'\x0c'fu0U'\n'5Oh_Iafg].<wkR%;JrV@{F,L}Vq/Av['\n'kF\\8'\x0b';zSZ-dgz0L>jo&|b&!7QKb"))))
(assert (> (str.to.int x) 2))
(check-sat)

(exit)
